p wcnf 40 405 16
1 1 6 11 16 21 26 31 36 0
2 2 7 12 17 22 27 32 37 0
3 3 8 13 18 23 28 33 38 0
4 4 9 14 19 24 29 34 39 0
5 5 10 15 20 25 30 35 40 0
16 -1 -7 0
16 -1 -8 0
16 -1 -9 0
16 -1 -10 0
16 -2 -6 0
16 -2 -8 0
16 -2 -9 0
16 -2 -10 0
16 -3 -6 0
16 -3 -7 0
16 -3 -9 0
16 -3 -10 0
16 -4 -6 0
16 -4 -7 0
16 -4 -8 0
16 -4 -10 0
16 -5 -6 0
16 -5 -7 0
16 -5 -8 0
16 -5 -9 0
16 -1 -32 0
16 -1 -33 0
16 -1 -34 0
16 -1 -35 0
16 -2 -31 0
16 -2 -33 0
16 -2 -34 0
16 -2 -35 0
16 -3 -31 0
16 -3 -32 0
16 -3 -34 0
16 -3 -35 0
16 -4 -31 0
16 -4 -32 0
16 -4 -33 0
16 -4 -35 0
16 -5 -31 0
16 -5 -32 0
16 -5 -33 0
16 -5 -34 0
16 -1 -37 0
16 -1 -38 0
16 -1 -39 0
16 -1 -40 0
16 -2 -36 0
16 -2 -38 0
16 -2 -39 0
16 -2 -40 0
16 -3 -36 0
16 -3 -37 0
16 -3 -39 0
16 -3 -40 0
16 -4 -36 0
16 -4 -37 0
16 -4 -38 0
16 -4 -40 0
16 -5 -36 0
16 -5 -37 0
16 -5 -38 0
16 -5 -39 0
16 -6 -22 0
16 -6 -23 0
16 -6 -24 0
16 -6 -25 0
16 -7 -21 0
16 -7 -23 0
16 -7 -24 0
16 -7 -25 0
16 -8 -21 0
16 -8 -22 0
16 -8 -24 0
16 -8 -25 0
16 -9 -21 0
16 -9 -22 0
16 -9 -23 0
16 -9 -25 0
16 -10 -21 0
16 -10 -22 0
16 -10 -23 0
16 -10 -24 0
16 -11 -27 0
16 -11 -28 0
16 -11 -29 0
16 -11 -30 0
16 -12 -26 0
16 -12 -28 0
16 -12 -29 0
16 -12 -30 0
16 -13 -26 0
16 -13 -27 0
16 -13 -29 0
16 -13 -30 0
16 -14 -26 0
16 -14 -27 0
16 -14 -28 0
16 -14 -30 0
16 -15 -26 0
16 -15 -27 0
16 -15 -28 0
16 -15 -29 0
16 -16 -27 0
16 -16 -28 0
16 -16 -29 0
16 -16 -30 0
16 -17 -26 0
16 -17 -28 0
16 -17 -29 0
16 -17 -30 0
16 -18 -26 0
16 -18 -27 0
16 -18 -29 0
16 -18 -30 0
16 -19 -26 0
16 -19 -27 0
16 -19 -28 0
16 -19 -30 0
16 -20 -26 0
16 -20 -27 0
16 -20 -28 0
16 -20 -29 0
16 -21 -27 0
16 -21 -28 0
16 -21 -29 0
16 -21 -30 0
16 -22 -26 0
16 -22 -28 0
16 -22 -29 0
16 -22 -30 0
16 -23 -26 0
16 -23 -27 0
16 -23 -29 0
16 -23 -30 0
16 -24 -26 0
16 -24 -27 0
16 -24 -28 0
16 -24 -30 0
16 -25 -26 0
16 -25 -27 0
16 -25 -28 0
16 -25 -29 0
16 -21 -32 0
16 -21 -33 0
16 -21 -34 0
16 -21 -35 0
16 -22 -31 0
16 -22 -33 0
16 -22 -34 0
16 -22 -35 0
16 -23 -31 0
16 -23 -32 0
16 -23 -34 0
16 -23 -35 0
16 -24 -31 0
16 -24 -32 0
16 -24 -33 0
16 -24 -35 0
16 -25 -31 0
16 -25 -32 0
16 -25 -33 0
16 -25 -34 0
16 -21 -37 0
16 -21 -38 0
16 -21 -39 0
16 -21 -40 0
16 -22 -36 0
16 -22 -38 0
16 -22 -39 0
16 -22 -40 0
16 -23 -36 0
16 -23 -37 0
16 -23 -39 0
16 -23 -40 0
16 -24 -36 0
16 -24 -37 0
16 -24 -38 0
16 -24 -40 0
16 -25 -36 0
16 -25 -37 0
16 -25 -38 0
16 -25 -39 0
16 -1 -6 0
16 -1 -11 0
16 -1 -16 0
16 -1 -21 0
16 -1 -26 0
16 -1 -31 0
16 -1 -36 0
16 -2 -7 0
16 -2 -12 0
16 -2 -17 0
16 -2 -22 0
16 -2 -27 0
16 -2 -32 0
16 -2 -37 0
16 -3 -8 0
16 -3 -13 0
16 -3 -18 0
16 -3 -23 0
16 -3 -28 0
16 -3 -33 0
16 -3 -38 0
16 -4 -9 0
16 -4 -14 0
16 -4 -19 0
16 -4 -24 0
16 -4 -29 0
16 -4 -34 0
16 -4 -39 0
16 -5 -10 0
16 -5 -15 0
16 -5 -20 0
16 -5 -25 0
16 -5 -30 0
16 -5 -35 0
16 -5 -40 0
16 -6 -11 0
16 -6 -16 0
16 -6 -21 0
16 -6 -26 0
16 -6 -31 0
16 -6 -36 0
16 -7 -12 0
16 -7 -17 0
16 -7 -22 0
16 -7 -27 0
16 -7 -32 0
16 -7 -37 0
16 -8 -13 0
16 -8 -18 0
16 -8 -23 0
16 -8 -28 0
16 -8 -33 0
16 -8 -38 0
16 -9 -14 0
16 -9 -19 0
16 -9 -24 0
16 -9 -29 0
16 -9 -34 0
16 -9 -39 0
16 -10 -15 0
16 -10 -20 0
16 -10 -25 0
16 -10 -30 0
16 -10 -35 0
16 -10 -40 0
16 -11 -16 0
16 -11 -21 0
16 -11 -26 0
16 -11 -31 0
16 -11 -36 0
16 -12 -17 0
16 -12 -22 0
16 -12 -27 0
16 -12 -32 0
16 -12 -37 0
16 -13 -18 0
16 -13 -23 0
16 -13 -28 0
16 -13 -33 0
16 -13 -38 0
16 -14 -19 0
16 -14 -24 0
16 -14 -29 0
16 -14 -34 0
16 -14 -39 0
16 -15 -20 0
16 -15 -25 0
16 -15 -30 0
16 -15 -35 0
16 -15 -40 0
16 -16 -21 0
16 -16 -26 0
16 -16 -31 0
16 -16 -36 0
16 -17 -22 0
16 -17 -27 0
16 -17 -32 0
16 -17 -37 0
16 -18 -23 0
16 -18 -28 0
16 -18 -33 0
16 -18 -38 0
16 -19 -24 0
16 -19 -29 0
16 -19 -34 0
16 -19 -39 0
16 -20 -25 0
16 -20 -30 0
16 -20 -35 0
16 -20 -40 0
16 -21 -26 0
16 -21 -31 0
16 -21 -36 0
16 -22 -27 0
16 -22 -32 0
16 -22 -37 0
16 -23 -28 0
16 -23 -33 0
16 -23 -38 0
16 -24 -29 0
16 -24 -34 0
16 -24 -39 0
16 -25 -30 0
16 -25 -35 0
16 -25 -40 0
16 -26 -31 0
16 -26 -36 0
16 -27 -32 0
16 -27 -37 0
16 -28 -33 0
16 -28 -38 0
16 -29 -34 0
16 -29 -39 0
16 -30 -35 0
16 -30 -40 0
16 -31 -36 0
16 -32 -37 0
16 -33 -38 0
16 -34 -39 0
16 -35 -40 0
16 -1 -2 0
16 -1 -3 0
16 -1 -4 0
16 -1 -5 0
16 -2 -3 0
16 -2 -4 0
16 -2 -5 0
16 -3 -4 0
16 -3 -5 0
16 -4 -5 0
16 -6 -7 0
16 -6 -8 0
16 -6 -9 0
16 -6 -10 0
16 -7 -8 0
16 -7 -9 0
16 -7 -10 0
16 -8 -9 0
16 -8 -10 0
16 -9 -10 0
16 -11 -12 0
16 -11 -13 0
16 -11 -14 0
16 -11 -15 0
16 -12 -13 0
16 -12 -14 0
16 -12 -15 0
16 -13 -14 0
16 -13 -15 0
16 -14 -15 0
16 -16 -17 0
16 -16 -18 0
16 -16 -19 0
16 -16 -20 0
16 -17 -18 0
16 -17 -19 0
16 -17 -20 0
16 -18 -19 0
16 -18 -20 0
16 -19 -20 0
16 -21 -22 0
16 -21 -23 0
16 -21 -24 0
16 -21 -25 0
16 -22 -23 0
16 -22 -24 0
16 -22 -25 0
16 -23 -24 0
16 -23 -25 0
16 -24 -25 0
16 -26 -27 0
16 -26 -28 0
16 -26 -29 0
16 -26 -30 0
16 -27 -28 0
16 -27 -29 0
16 -27 -30 0
16 -28 -29 0
16 -28 -30 0
16 -29 -30 0
16 -31 -32 0
16 -31 -33 0
16 -31 -34 0
16 -31 -35 0
16 -32 -33 0
16 -32 -34 0
16 -32 -35 0
16 -33 -34 0
16 -33 -35 0
16 -34 -35 0
16 -36 -37 0
16 -36 -38 0
16 -36 -39 0
16 -36 -40 0
16 -37 -38 0
16 -37 -39 0
16 -37 -40 0
16 -38 -39 0
16 -38 -40 0
16 -39 -40 0
